322 373 372 371 396 395 394 393 391 392 390 389 388 387 385 386 382 383 384 410 411 412 418 417 419 420 421 422 423 424 425 426 427 428 429 431 430 432 433 434 435 436 437 438 454 455 456 457 458 459 460 461 462 463 466 467 465 464 496 497 498 501 500 499 452 453 439 440 441 450 449 448 447 446 442 443 444 445 381 380 379 378 377 376 375 374 315 314 316 313 312 451 311 310 309 308 505 504 503 502 516 515 514 513 509 510 511 512 527 528 529 530 531 489 532 533 488 534 535 487 486 490 491 492 493 524 525 526 523 521 522 517 520 519 518 495 494 472 471 470 469 468 571 572 573 0 1 2 3 4 5 6 7 8 9 10 11 13 12 23 22 31 30 32 36 37 38 39 42 41 40 35 33 34 29 28 27 26 25 24 21 14 15 16 17 18 19 20 568 569 570 474 473 567 566 565 564 563 562 561 560 559 558 557 556 552 553 554 555 46 45 44 43 47 48 49 91 92 93 94 95 96 97 98 99 100 102 101 551 550 549 548 478 477 479 480 476 475 482 481 483 485 484 536 537 539 538 540 187 188 186 182 178 177 176 175 172 170 171 169 168 163 162 160 161 113 112 111 110 109 108 173 174 107 542 541 543 544 545 546 547 103 104 105 106 117 123 122 121 120 118 119 73 74 75 76 77 78 88 89 90 87 86 85 84 51 50 52 54 53 55 56 83 82 57 58 59 81 80 79 61 60 63 62 64 67 66 65 72 71 70 68 69 124 125 126 127 128 116 115 114 131 132 133 134 135 136 137 130 129 138 139 140 141 151 150 149 152 148 147 142 143 144 146 145 158 157 153 156 159 155 154 165 164 167 166 180 179 181 183 185 184 197 198 199 200 201 202 204 203 208 207 206 205 196 195 194 209 210 211 212 213 214 215 216 217 223 224 222 221 220 218 219 193 192 191 190 226 225 189 227 228 229 230 231 233 232 234 235 236 237 240 239 238 246 247 245 244 243 242 241 248 249 250 251 252 254 253 255 256 257 300 301 302 508 507 506 307 303 304 306 305 318 317 319 320 321 297 298 299 258 259 260 261 262 263 264 265 266 267 296 295 294 291 292 293 270 269 268 271 272 273 274 275 290 289 288 276 277 278 279 282 281 280 287 286 285 284 283 334 335 336 337 338 339 333 332 331 330 340 341 342 343 344 345 346 364 363 362 347 348 349 350 351 415 416 414 413 352 353 354 355 356 357 358 359 361 360 401 402 403 400 404 405 409 408 407 406 399 397 398 370 369 368 365 367 366 329 328 327 326 325 324 323